* ENCODING=ISO-8859-1
NAME          CPLEX
ROWS
 N  obj1    
 G  c1      
 G  c2      
 G  c3      
 G  c4      
 G  c5      
 G  c6      
 G  c7      
 G  c8      
 G  c9      
 G  c10     
 G  c11     
 G  c12     
 G  c13     
 G  c14     
 G  c15     
 G  c16     
 G  c17     
 G  c18     
 G  c19     
 G  c20     
 G  c21     
 G  c22     
 G  c23     
 G  c24     
 G  c25     
 G  c26     
 G  c27     
 G  c28     
 G  c29     
 G  c30     
 G  c31     
 G  c32     
 G  c33     
 G  c34     
 G  c35     
 G  c36     
 G  c37     
 G  c38     
 G  c39     
 G  c40     
 G  c41     
 G  c42     
 G  c43     
 G  c44     
 G  c45     
 G  c46     
 G  c47     
 G  c48     
 G  c49     
 G  c50     
 G  c51     
 G  c52     
 G  c53     
 G  c54     
 G  c55     
 G  c56     
 G  c57     
 G  c58     
 G  c59     
 G  c60     
 G  c61     
 G  c62     
 G  c63     
 G  c64     
 G  c65     
 G  c66     
 G  c67     
 G  c68     
 G  c69     
 G  c70     
COLUMNS
    MARK0000  'MARKER'                 'INTORG'
    x1        obj1                            1
    x1        c2                            494
    x1        c6                            355
    x1        c7                            344
    x1        c36                           453
    x1        c39                           589
    x1        c51                           459
    x2        obj1                            1
    x2        c6                            666
    x2        c10                           859
    x2        c27                           295
    x2        c30                           415
    x2        c40                           478
    x2        c48                           669
    x2        c58                           544
    x2        c59                           717
    x2        c70                           319
    x3        obj1                            1
    x3        c15                           818
    x3        c17                           129
    x3        c25                           519
    x3        c35                           977
    x3        c40                           272
    x3        c45                           810
    x4        obj1                            1
    x4        c2                            246
    x4        c4                            846
    x4        c32                           438
    x4        c49                           890
    x4        c67                           650
    x5        obj1                            1
    x5        c1                            418
    x5        c10                           406
    x5        c12                           403
    x5        c14                           686
    x5        c15                           137
    x5        c30                           283
    x5        c35                           843
    x5        c36                           760
    x5        c40                           407
    x5        c55                           250
    x5        c62                           120
    x6        obj1                            1
    x6        c2                            172
    x6        c30                           778
    x6        c59                           939
    x6        c63                           387
    x6        c64                           198
    x7        obj1                            1
    x7        c10                           265
    x7        c15                           742
    x7        c18                           216
    x7        c38                           694
    x7        c42                           669
    x7        c50                           948
    x7        c59                           512
    x8        obj1                            1
    x8        c2                            782
    x8        c8                            377
    x8        c13                           469
    x8        c14                           716
    x8        c21                           513
    x8        c31                           171
    x8        c34                           800
    x8        c38                           132
    x8        c39                           717
    x8        c54                           644
    x9        obj1                            1
    x9        c11                           232
    x9        c18                           683
    x9        c36                           196
    x9        c41                           693
    x9        c65                           521
    x9        c67                           543
    x10       obj1                            1
    x10       c11                           818
    x10       c33                           186
    x10       c43                           206
    x10       c45                           225
    x10       c47                           912
    x10       c48                           332
    x10       c52                           462
    x11       obj1                            1
    x11       c1                            560
    x11       c4                            781
    x11       c6                            577
    x11       c12                           708
    x11       c19                           167
    x11       c20                           281
    x11       c26                           907
    x11       c38                           312
    x11       c40                           220
    x11       c41                           422
    x11       c44                           311
    x11       c46                           719
    x11       c48                           588
    x12       obj1                            1
    x12       c15                           164
    x12       c30                           808
    x12       c42                           133
    x12       c48                           387
    x12       c54                           665
    x12       c61                           166
    x12       c63                           563
    x13       obj1                            1
    x13       c1                            101
    x13       c3                            897
    x13       c14                           637
    x13       c25                           649
    x13       c42                           764
    x13       c43                           326
    x13       c52                           908
    x13       c54                           184
    x13       c55                           313
    x14       obj1                            1
    x14       c1                            234
    x14       c7                            355
    x14       c8                            637
    x14       c10                           298
    x14       c17                           319
    x14       c21                           810
    x14       c23                           322
    x14       c27                           355
    x14       c47                           667
    x14       c67                           298
    x15       obj1                            1
    x15       c8                            905
    x15       c11                           912
    x15       c12                           233
    x15       c16                           500
    x15       c22                           516
    x15       c23                           220
    x15       c32                           285
    x15       c62                           357
    x15       c65                           428
    x15       c69                           446
    x16       obj1                            1
    x16       c19                           929
    x16       c20                           620
    x16       c23                           932
    x16       c28                           707
    x16       c40                           196
    x16       c58                           393
    x17       obj1                            1
    x17       c7                            275
    x17       c8                            883
    x17       c27                           912
    x17       c32                           719
    x17       c49                           571
    x17       c52                           376
    x17       c62                           949
    x17       c68                           912
    x18       obj1                            1
    x18       c6                            269
    x18       c22                           264
    x18       c38                           257
    x18       c44                           149
    x18       c46                           373
    x18       c51                           509
    x18       c56                           601
    x18       c59                           844
    x18       c62                           377
    x18       c65                           420
    x18       c66                           557
    x19       obj1                            1
    x19       c25                           326
    x19       c27                           780
    x19       c28                           739
    x19       c46                           871
    x19       c48                           179
    x20       obj1                            1
    x20       c5                            446
    x20       c15                           283
    x20       c53                           655
    x21       obj1                            1
    x21       c7                            566
    x21       c14                           432
    x21       c17                           140
    x21       c32                           748
    x21       c33                           295
    x21       c44                           186
    x21       c49                           563
    x21       c50                           908
    x21       c64                           942
    x22       obj1                            1
    x22       c23                           727
    x22       c26                           246
    x22       c30                           957
    x22       c42                           564
    x22       c46                           130
    x22       c58                           519
    x22       c59                           623
    x22       c60                           208
    x22       c67                           638
    x23       obj1                            1
    x23       c15                           706
    x23       c18                           240
    x23       c20                           387
    x23       c25                           781
    x23       c41                           758
    x23       c51                           909
    x24       obj1                            1
    x24       c15                           958
    x24       c21                           261
    x24       c32                           113
    x24       c42                           601
    x24       c48                           487
    x24       c52                           558
    x24       c56                           965
    x24       c60                           410
    x25       obj1                            1
    x25       c16                           762
    x25       c28                           830
    x25       c34                           272
    x25       c36                           304
    x25       c45                           950
    x25       c54                           193
    x25       c57                           136
    x26       obj1                            1
    x26       c3                            688
    x26       c5                            442
    x26       c16                           686
    x26       c17                           413
    x26       c35                           375
    x26       c44                           900
    x27       obj1                            1
    x27       c22                           457
    x27       c31                           732
    x27       c38                           626
    x27       c51                           397
    x27       c54                           460
    x27       c67                           687
    x28       obj1                            1
    x28       c14                           481
    x28       c21                           516
    x28       c36                           249
    x28       c37                           770
    x28       c39                           769
    x28       c56                           738
    x28       c66                           256
    x29       obj1                            1
    x29       c2                            701
    x29       c10                           347
    x29       c11                           698
    x29       c21                           231
    x29       c28                           961
    x29       c42                           836
    x29       c47                           494
    x29       c48                           853
    x30       obj1                            1
    x30       c23                           477
    x30       c39                           739
    x30       c43                           747
    x30       c57                           860
    x30       c60                           978
    x30       c68                           540
    x31       obj1                            1
    x31       c8                            845
    x31       c38                           429
    x31       c39                           818
    x31       c50                           420
    x31       c55                           931
    x31       c61                           291
    x31       c66                           659
    x32       obj1                            1
    x32       c37                           177
    x32       c40                           370
    x32       c50                           912
    x32       c53                           845
    x32       c61                           429
    x32       c69                           576
    x33       obj1                            1
    x33       c7                            355
    x33       c40                           407
    x33       c46                           342
    x33       c54                           651
    x33       c60                           358
    x33       c66                           932
    x34       obj1                            1
    x34       c9                            982
    x34       c17                           117
    x34       c32                           504
    x34       c37                           675
    x34       c39                           653
    x34       c42                           226
    x34       c55                           130
    x34       c59                           661
    x34       c66                           241
    x35       obj1                            1
    x35       c2                            485
    x35       c3                            218
    x35       c7                            878
    x35       c17                           690
    x35       c29                           307
    x35       c42                           483
    x35       c55                           168
    x36       obj1                            1
    x36       c4                            271
    x36       c14                           239
    x36       c19                           481
    x36       c32                           508
    x36       c33                           923
    x36       c36                           961
    x36       c54                           463
    x36       c59                           731
    x36       c65                           247
    x36       c68                           489
    x37       obj1                            1
    x37       c58                           589
    x37       c63                           563
    x38       obj1                            1
    x38       c7                            372
    x38       c9                            987
    x38       c16                           379
    x38       c18                           992
    x38       c27                           848
    x38       c34                           182
    x38       c39                           864
    x38       c47                           748
    x38       c55                           653
    x39       obj1                            1
    x39       c20                           659
    x39       c33                           714
    x39       c46                           718
    x39       c48                           785
    x39       c50                           799
    x39       c51                           816
    x40       obj1                            1
    x40       c16                           346
    x40       c24                           535
    x40       c63                           668
    x40       c66                           497
    x40       c68                           813
    x41       obj1                            1
    x41       c27                           309
    x41       c40                           742
    x41       c48                           696
    x41       c52                           161
    x41       c56                           269
    x41       c57                           135
    x41       c66                           214
    x41       c69                           412
    x42       obj1                            1
    x42       c1                            722
    x42       c6                            417
    x42       c8                            172
    x42       c14                           857
    x42       c43                           551
    x42       c46                           765
    x42       c56                           252
    x42       c63                           600
    x42       c65                           821
    x42       c66                           943
    x43       obj1                            1
    x43       c3                            277
    x43       c36                           652
    x43       c59                           978
    x43       c63                           260
    x43       c70                           359
    x44       obj1                            1
    x44       c11                           166
    x44       c12                           848
    x44       c16                           915
    x44       c68                           974
    x44       c70                           320
    x45       obj1                            1
    x45       c7                            180
    x45       c36                           499
    x45       c39                           116
    x45       c52                           587
    x45       c59                           208
    x45       c62                           681
    x45       c67                           488
    x46       obj1                            1
    x46       c2                            222
    x46       c24                           477
    x46       c43                           349
    x46       c55                           358
    x47       obj1                            1
    x47       c2                            440
    x47       c23                           913
    x47       c41                           710
    x47       c51                           283
    x47       c64                           232
    x48       obj1                            1
    x48       c5                            653
    x48       c13                           604
    x48       c21                           312
    x48       c41                           500
    x48       c46                           581
    x48       c47                           831
    x48       c48                           346
    x48       c53                           696
    x49       obj1                            1
    x49       c14                           114
    x49       c17                           264
    x49       c50                           840
    x49       c59                           760
    x50       obj1                            1
    x50       c1                            861
    x50       c4                            988
    x50       c8                            978
    x50       c9                            579
    x50       c15                           888
    x50       c49                           746
    x50       c66                           489
    x50       c68                           514
    x51       obj1                            1
    x51       c3                            631
    x51       c46                           631
    x51       c66                           117
    x51       c68                           519
    x52       obj1                            1
    x52       c19                           953
    x52       c23                           679
    x52       c24                           207
    x52       c27                           184
    x52       c29                           770
    x52       c30                           654
    x52       c34                           402
    x52       c35                           667
    x52       c46                           492
    x52       c64                           730
    x53       obj1                            1
    x53       c3                            732
    x53       c12                           480
    x53       c29                           689
    x53       c31                           755
    x54       obj1                            1
    x54       c2                            957
    x54       c8                            207
    x54       c24                           745
    x54       c33                           810
    x54       c38                           970
    x54       c49                           274
    x54       c50                           304
    x54       c67                           590
    x55       obj1                            1
    x55       c10                           896
    x55       c16                           492
    x55       c37                           751
    x55       c43                           502
    x55       c45                           554
    x55       c69                           974
    x56       obj1                            1
    x56       c38                           320
    x56       c42                           529
    x56       c52                           441
    x56       c70                           443
    x57       obj1                            1
    x57       c19                           360
    x57       c22                           266
    x57       c27                           248
    x57       c30                           824
    x57       c50                           732
    x57       c51                           908
    x58       obj1                            1
    x58       c3                            894
    x58       c9                            657
    x58       c26                           460
    x58       c50                           539
    x58       c58                           416
    x59       obj1                            1
    x59       c1                            758
    x59       c5                            178
    x59       c7                            536
    x59       c8                            114
    x59       c13                           792
    x59       c16                           788
    x59       c25                           610
    x59       c31                           691
    x59       c39                           511
    x59       c41                           755
    x59       c51                           187
    x59       c55                           656
    x59       c65                           183
    x59       c69                           133
    x60       obj1                            1
    x60       c2                            431
    x60       c18                           761
    x60       c22                           211
    x60       c53                           402
    x60       c54                           288
    x61       obj1                            1
    x61       c15                           796
    x61       c17                           559
    x61       c25                           607
    x61       c44                           522
    x61       c45                           326
    x61       c52                           243
    x61       c67                           931
    x62       obj1                            1
    x62       c13                           206
    x62       c26                           542
    x62       c29                           681
    x62       c32                           519
    x62       c45                           982
    x62       c47                           351
    x62       c51                           626
    x62       c52                           105
    x62       c55                           378
    x62       c56                           362
    x62       c58                           911
    x63       obj1                            1
    x63       c14                           566
    x63       c23                           153
    x63       c32                           362
    x63       c36                           198
    x63       c61                           616
    x63       c69                           493
    x64       obj1                            1
    x64       c5                            971
    x64       c29                           688
    x64       c52                           773
    x64       c58                           201
    x64       c63                           425
    x65       obj1                            1
    x65       c19                           309
    x65       c22                           287
    x65       c33                           136
    x65       c51                           347
    x65       c55                           176
    x66       obj1                            1
    x66       c31                           269
    x66       c33                           120
    x66       c39                           745
    x66       c44                           255
    x66       c67                           635
    x67       obj1                            1
    x67       c10                           399
    x67       c12                           653
    x67       c20                           794
    x67       c38                           537
    x67       c54                           942
    x67       c62                           605
    x68       obj1                            1
    x68       c4                            452
    x68       c6                            372
    x68       c29                           181
    x68       c36                           772
    x68       c37                           693
    x68       c43                           824
    x69       obj1                            1
    x69       c1                            257
    x69       c8                            922
    x69       c14                           687
    x69       c15                           295
    x69       c27                           642
    x69       c44                           499
    x69       c57                           804
    x70       obj1                            1
    x70       c3                            124
    x70       c6                            311
    x70       c10                           549
    x70       c20                           752
    x70       c22                           337
    x70       c38                           561
    x70       c44                           174
    x70       c65                           950
    x70       c69                           296
    x70       c70                           438
    MARK0001  'MARKER'                 'INTEND'
RHS
    rhs       c1                           1956
    rhs       c2                           2465
    rhs       c3                           2231
    rhs       c4                           1669
    rhs       c5                           1345
    rhs       c6                           1484
    rhs       c7                           1931
    rhs       c8                           3020
    rhs       c9                           1603
    rhs       c10                          2010
    rhs       c11                          1413
    rhs       c12                          1663
    rhs       c13                          1036
    rhs       c14                          2708
    rhs       c15                          2894
    rhs       c16                          2434
    rhs       c17                          1316
    rhs       c18                          1446
    rhs       c19                          1600
    rhs       c20                          1747
    rhs       c21                          1322
    rhs       c22                          1169
    rhs       c23                          2212
    rhs       c24                           982
    rhs       c25                          1746
    rhs       c26                          1078
    rhs       c27                          2287
    rhs       c28                          1619
    rhs       c29                          1658
    rhs       c30                          2360
    rhs       c31                          1309
    rhs       c32                          2098
    rhs       c33                          1592
    rhs       c34                           828
    rhs       c35                          1431
    rhs       c36                          2522
    rhs       c37                          1533
    rhs       c38                          2419
    rhs       c39                          3261
    rhs       c40                          1546
    rhs       c41                          1919
    rhs       c42                          2403
    rhs       c43                          1753
    rhs       c44                          1498
    rhs       c45                          1924
    rhs       c46                          2811
    rhs       c47                          2002
    rhs       c48                          2661
    rhs       c49                          1522
    rhs       c50                          3201
    rhs       c51                          2721
    rhs       c52                          2307
    rhs       c53                          1299
    rhs       c54                          2245
    rhs       c55                          2007
    rhs       c56                          1594
    rhs       c57                           968
    rhs       c58                          1787
    rhs       c59                          3487
    rhs       c60                           977
    rhs       c61                           751
    rhs       c62                          1545
    rhs       c63                          1733
    rhs       c64                          1051
    rhs       c65                          1785
    rhs       c66                          2453
    rhs       c67                          2730
    rhs       c68                          2381
    rhs       c69                          1665
    rhs       c70                           940
BOUNDS
 LI bnd       x1        0
 LI bnd       x2        0
 LI bnd       x3        0
 LI bnd       x4        0
 LI bnd       x5        0
 LI bnd       x6        0
 LI bnd       x7        0
 LI bnd       x8        0
 LI bnd       x9        0
 LI bnd       x10       0
 LI bnd       x11       0
 LI bnd       x12       0
 LI bnd       x13       0
 LI bnd       x14       0
 LI bnd       x15       0
 LI bnd       x16       0
 LI bnd       x17       0
 LI bnd       x18       0
 LI bnd       x19       0
 LI bnd       x20       0
 LI bnd       x21       0
 LI bnd       x22       0
 LI bnd       x23       0
 LI bnd       x24       0
 LI bnd       x25       0
 LI bnd       x26       0
 LI bnd       x27       0
 LI bnd       x28       0
 LI bnd       x29       0
 LI bnd       x30       0
 LI bnd       x31       0
 LI bnd       x32       0
 LI bnd       x33       0
 LI bnd       x34       0
 LI bnd       x35       0
 LI bnd       x36       0
 LI bnd       x37       0
 LI bnd       x38       0
 LI bnd       x39       0
 LI bnd       x40       0
 LI bnd       x41       0
 LI bnd       x42       0
 LI bnd       x43       0
 LI bnd       x44       0
 LI bnd       x45       0
 LI bnd       x46       0
 LI bnd       x47       0
 LI bnd       x48       0
 LI bnd       x49       0
 LI bnd       x50       0
 LI bnd       x51       0
 LI bnd       x52       0
 LI bnd       x53       0
 LI bnd       x54       0
 LI bnd       x55       0
 LI bnd       x56       0
 LI bnd       x57       0
 LI bnd       x58       0
 LI bnd       x59       0
 LI bnd       x60       0
 LI bnd       x61       0
 LI bnd       x62       0
 LI bnd       x63       0
 LI bnd       x64       0
 LI bnd       x65       0
 LI bnd       x66       0
 LI bnd       x67       0
 LI bnd       x68       0
 LI bnd       x69       0
 LI bnd       x70       0
ENDATA
